53, 336
383, 244
427, 440
483, 195
134, 258
473, 107
301, 279
90, 440
501, 182
433, 309
267, 109
81, 214
464, 352
153, 255
194, 137
107, 344
492, 170
291, 377
67, 473
214, 297
74, 147
67, 392
435, 309
534, 393
402, 100
475, 178
310, 141
400, 434
487, 343
241, 271
51, 326
400, 101
252, 161
56, 377
278, 356
202, 488
114, 405
181, 401
451, 355
232, 298
72, 125
56, 161
501, 378
103, 395
245, 248
88, 239
125, 282
143, 215
547, 402
354, 138
321, 233
61, 330
75, 267
389, 497